modules/CPAchecker/output/Counterexample.1.smt2
(set-info :source |printed by MathSAT|)
(declare-fun |main::x@2| () (_ BitVec 32))
(declare-fun |__VERIFIER_assert::cond@2| () (_ BitVec 32))
(assert (let ((.def_19 (= |__VERIFIER_assert::cond@2| (_ bv0 32))))(let ((.def_14 (bvult (_ bv268435455 32) |main::x@2|)))(let ((.def_15 (ite .def_14 (_ bv1 32) (_ bv0 32))))(let ((.def_17 (= .def_15 |__VERIFIER_assert::cond@2|)))(let ((.def_10 (bvult |main::x@2| (_ bv268435455 32))))(let ((.def_13 (not .def_10)))(let ((.def_18 (and .def_13 .def_17)))(let ((.def_21 (and .def_18 .def_19)))(let ((.def_22 (and .def_19 .def_21)))(let ((.def_23 (and .def_19 .def_22))).def_23)))))))))))